c WARNING: for repeatability, setting FPU to use double precision
d VARIABLES            138130       
d CONSTRAINTS          582720       
c ============================[ Problem Statistics ]=============================
c |                                                                             |
c |  Number of variables:        138130                                         |
c |  Number of clauses:          582720                                         |
c |  Parse time:                   0.08 s                                       |
c |                                                                             |
c ============================[ Search Statistics ]==============================
c | Conflicts |          ORIGINAL         |          LEARNT          | Progress |
c |           |    Vars  Clauses Literals |    Limit  Clauses Lit/Cl |          |
c ===============================================================================
c |       100 |  109163   508090  1235641 |   186299      100     18 | 20.971 % |
c |       250 |  109163   508090  1235641 |   204929      250     36 | 20.971 % |
c |       475 |  109163   508090  1235641 |   225422      475     70 | 20.971 % |
c |       812 |  109163   508090  1235641 |   247964      812     70 | 20.971 % |
c |      1318 |  109163   508090  1235641 |   272761     1318     96 | 20.971 % |
c |      2077 |  109163   508090  1235641 |   300037     2077    102 | 20.971 % |
c |      3216 |  109163   508090  1235641 |   330041     3216    117 | 20.971 % |
c |      4924 |  109163   508090  1235641 |   363045     4924    110 | 20.971 % |
c |      7486 |  109163   508090  1235641 |   399349     7486    128 | 20.971 % |
c |     11330 |  109163   508090  1235641 |   439284    11330    125 | 20.971 % |
c |     17096 |  109163   508090  1235641 |   483213    17096    130 | 20.971 % |
c |     25745 |  109162   508080  1235618 |   531534    25743    136 | 20.972 % |
c |     38719 |  109162   508080  1235618 |   584688    38717    157 | 20.972 % |
c |     58180 |  109148   507970  1235365 |   643156    58131    157 | 20.982 % |
c |     87372 |  109128   507750  1234861 |   707472    87224    159 | 20.996 % |
c ===============================================================================
c restarts              : 322
c conflicts             : 122315         (1943 /sec)
c decisions             : 715550         (0.00 % random) (11369 /sec)
c propagations          : 270945506      (4305100 /sec)
c conflict literals     : 19031562       (17.89 % deleted)
d RESTARTS             322
d FAILURES             122315       
d NODES                715550       
d BACKTRACKS           715550       
d PROPAGATIONS         270945506    
d NOGOODSIZE           155.59 
d MEMORY               172.00 
d TIME                 62.9359 

s UNSATISFIABLE
